qViagens = 4;
qPontosCarga = 1;
qBetoneiras = 3;
M = 3000;
dp = [
[0],
[25],
[25],
[25]
];
dv = [
[0],
[24.3],
[22],
[12.9]
];
td = [0, 17.1, 19.4, 12.3];
tmaxvc = [0, 120, 120, 120];
hs = [0, 1146.5, 1066, 795.3];
c = [
[0],
[50],
[48],
[78.1]
];
qvMax = [33];
cuve = [6.1];
